webassembly/ejemplos_results/11/folder11_json_29.txt
value = 11;
fgas = [1, 1, 1, 1, 1, 1, 1, 1, 1, 1, 1];
fsize = [1, 1, 1, 1, 1, 1, 1, 1, 1, 1, 1];
states = 
[|    in_0,    in_1,    in_2,     '.',    '.', '.', '.', '.', '.', '.'
 |    in_0,    in_1,    in_2,     '.',    '.', '.', '.', '.', '.', '.'
 |    in_0,    in_1,    in_2,     '.',    '.', '.', '.', '.', '.', '.'
 | local_0,    in_0,    in_1,    in_2,    '.', '.', '.', '.', '.', '.'
 |    in_1,    in_2,     '.',     '.',    '.', '.', '.', '.', '.', '.'
 |  's(0)',    in_2,     '.',     '.',    '.', '.', '.', '.', '.', '.'
 |  's(1)',     '.',     '.',     '.',    '.', '.', '.', '.', '.', '.'
 | local_0,  's(1)',     '.',     '.',    '.', '.', '.', '.', '.', '.'
 | local_0, local_0,  's(1)',     '.',    '.', '.', '.', '.', '.', '.'
 | local_0, local_0, local_0,  's(1)',    '.', '.', '.', '.', '.', '.'
 | local_0, local_0, local_0, local_0, 's(1)', '.', '.', '.', '.', '.'
 |  's(2)', local_0, local_0,  's(1)',    '.', '.', '.', '.', '.', '.'
 |];
register_states = 
[| local_1, '.', '.', '.', '.'
 |    in_0, '.', '.', '.', '.'
 |    in_0, '.', '.', '.', '.'
 |    in_0, '.', '.', '.', '.'
 |    in_0, '.', '.', '.', '.'
 |    in_0, '.', '.', '.', '.'
 |    in_0, '.', '.', '.', '.'
 |    in_0, '.', '.', '.', '.'
 |    in_0, '.', '.', '.', '.'
 |    in_0, '.', '.', '.', '.'
 |    in_0, '.', '.', '.', '.'
 |    in_0, '.', '.', '.', '.'
 |];
program = [TEE(TEE1), TEE(TEE1), O('local.get_0'), O('i32.store_3'), O('i32.load8_u_4'), O('i32.sub_0'), O('local.get_0'), O('local.get_0'), O('local.get_0'), O('local.get_0'), O('i32.add_0')];
% time elapsed: 0.47 s
----------
value = 10;
fgas = [1, 1, 1, 1, 1, 1, 1, 1, 1, 1, 0];
fsize = [1, 1, 1, 1, 1, 1, 1, 1, 1, 1, 1];
states = 
[|    in_0,    in_1,    in_2,     '.',    '.', '.', '.', '.', '.', '.'
 |    in_0,    in_1,    in_2,     '.',    '.', '.', '.', '.', '.', '.'
 | local_0,    in_0,    in_1,    in_2,    '.', '.', '.', '.', '.', '.'
 |    in_1,    in_2,     '.',     '.',    '.', '.', '.', '.', '.', '.'
 |  's(0)',    in_2,     '.',     '.',    '.', '.', '.', '.', '.', '.'
 |  's(1)',     '.',     '.',     '.',    '.', '.', '.', '.', '.', '.'
 | local_0,  's(1)',     '.',     '.',    '.', '.', '.', '.', '.', '.'
 | local_0, local_0,  's(1)',     '.',    '.', '.', '.', '.', '.', '.'
 | local_0, local_0, local_0,  's(1)',    '.', '.', '.', '.', '.', '.'
 | local_0, local_0, local_0, local_0, 's(1)', '.', '.', '.', '.', '.'
 |  's(2)', local_0, local_0,  's(1)',    '.', '.', '.', '.', '.', '.'
 |  's(2)', local_0, local_0,  's(1)',    '.', '.', '.', '.', '.', '.'
 |];
register_states = 
[| local_1, '.', '.', '.', '.'
 |    in_0, '.', '.', '.', '.'
 |    in_0, '.', '.', '.', '.'
 |    in_0, '.', '.', '.', '.'
 |    in_0, '.', '.', '.', '.'
 |    in_0, '.', '.', '.', '.'
 |    in_0, '.', '.', '.', '.'
 |    in_0, '.', '.', '.', '.'
 |    in_0, '.', '.', '.', '.'
 |    in_0, '.', '.', '.', '.'
 |    in_0, '.', '.', '.', '.'
 |    in_0, '.', '.', '.', '.'
 |];
program = [TEE(TEE1), O('local.get_0'), O('i32.store_3'), O('i32.load8_u_4'), O('i32.sub_0'), O('local.get_0'), O('local.get_0'), O('local.get_0'), O('local.get_0'), O('i32.add_0'), NOP];
% time elapsed: 0.53 s
----------
==========
% time elapsed: 0.54 s
% [value > 9]
